Route #1: 115 114 106 107 108 109 120
Route #2: 81 112 125 123 122 111 126 128 113 129 121 127 124 110 69 70 68 133 78
Route #3: 66 71 33 80 67 79 63 64 77 134 32 76 74 73
Route #4: 22 24 26 30 105 57 55 53 51 52 50 49 34 48 1 75 47 72
Route #5: 60 61 62 54 103 102 101 35 36 37 95 39 38 96 97 98 99 100 104 56 58 31 59 23
Route #6: 91 21 25 27 28 92 29 93 94 45 43 44 40 3 41 42 2 4 5 6 7 8 9 10 11 12 14 88 15 13 16 90 89 87 86 84 85 83 20 82
Route #7: 19 65 130 119 117 131 116 132 17 18 118 46
Cost 1167
Time 0.26596
